\ Equation counts
\     Total        E        G        L        N        X        C        B
\	0	0	0	0
\
\ Variable counts
\                  x        b        i      s1s      s2s       sc       si
\     Total     cont   binary  integer     sos1     sos2    scont     sint
\	80	80

\ Nonzero counts
\     Total    const       NL      DLL
\
\
Minimize
 obj: [ - 20.5 x_1 * x_6 + 20.0 x_1 * x_9 + 8.5 x_1 * x_10 + 1.5 x_1 * x_18 + 3.0 x_1 * x_19 - 14.0 x_1 * x_21 + 1.5 x_1 * x_23 - 9.0 x_1 * x_24 + 9.0 x_1 * x_29 - 0.5 x_1 * x_30 - 20.5 x_1 * x_35 - 7.0 x_1 * x_38 - 21.5 x_1 * x_39 + 7.5 x_1 * x_40 - 10.5 x_1 * x_48 - 21.5 x_1 * x_55 - 2.0 x_1 * x_65 - 19.0 x_1 * x_66 + 23.0 x_1 * x_68 - 16.5 x_1 * x_70 + 11.0 x_1 * x_71 - 18.0 x_1 * x_76 + 2.0 x_2 * x_3 - 14.0 x_2 * x_5 - 11.0 x_2 * x_9 - 2.5 x_2 * x_15 - 7.5 x_2 * x_19 - 18.5 x_2 * x_23 - 18.0 x_2 * x_25 + 15.0 x_2 * x_33 + 24.5 x_2 * x_36 + 6.5 x_2 * x_40 - 20.0 x_2 * x_45 - 14.5 x_2 * x_52 + 18.0 x_2 * x_58 - 18.5 x_2 * x_59 - 10.5 x_2 * x_62 + 24.5 x_2 * x_63 - 11.0 x_2 * x_76 + 2.0 x_3 * x_2 - 11.0 x_3 * x_3 - 21.0 x_3 * x_9 - 20.0 x_3 * x_11 + 9.5 x_3 * x_14 + 9.5 x_3 * x_19 - 21.0 x_3 * x_23 - 21.5 x_3 * x_24 + 2.0 x_3 * x_26 + 2.0 x_3 * x_27 - 3.0 x_3 * x_31 + 11.0 x_3 * x_36 + 16.5 x_3 * x_43 - 8.5 x_3 * x_46 - 14.5 x_3 * x_47 - 23.5 x_3 * x_49 + 21.0 x_3 * x_55 + 19.0 x_3 * x_59 + 18.0 x_3 * x_60 + 5.0 x_3 * x_62 - 1.0 x_3 * x_65 + 17.0 x_3 * x_79 + 21.5 x_4 * x_11 - 19.0 x_4 * x_13 + 8.5 x_4 * x_15 - 14.5 x_4 * x_19 - 16.0 x_4 * x_24 + 5.5 x_4 * x_28 + 13.5 x_4 * x_33 + 10.0 x_4 * x_54 - 2.5 x_4 * x_62 + 19.5 x_4 * x_67 + 20.5 x_4 * x_68 - 19.0 x_4 * x_71 - 3.0 x_4 * x_73 + 8.5 x_4 * x_79 - 14.0 x_5 * x_2 + 11.5 x_5 * x_5 + 9.0 x_5 * x_17 + 3.5 x_5 * x_21 + 23.5 x_5 * x_32 - 21.0 x_5 * x_35 + 7.5 x_5 * x_36 + 15.5 x_5 * x_41 + 20.0 x_5 * x_42 - 24.0 x_5 * x_43 - 15.5 x_5 * x_47 - 9.0 x_5 * x_51 - 2.0 x_5 * x_58 + 3.5 x_5 * x_61 + 5.5 x_5 * x_62 - 18.0 x_5 * x_63 - 2.5 x_5 * x_64 + 17.0 x_5 * x_68 - 21.5 x_5 * x_73 + 16.0 x_5 * x_74 - 13.0 x_5 * x_79 - 20.5 x_6 * x_1 + 13.5 x_6 * x_11 - 17.5 x_6 * x_19 + 1.5 x_6 * x_20 + 14.0 x_6 * x_21 - 8.5 x_6 * x_24 - 4.0 x_6 * x_27 + 11.5 x_6 * x_33 + 17.5 x_6 * x_36 + 23.0 x_6 * x_44 - 18.0 x_6 * x_46 + 10.0 x_6 * x_54 - 6.5 x_6 * x_62 + 12.0 x_6 * x_69 - 2.0 x_6 * x_71 - 20.0 x_6 * x_74 + 6.0 x_6 * x_75 + 24.0 x_6 * x_77 - 2.0 x_6 * x_80 + 3.5 x_7 * x_7 + 13.0 x_7 * x_9 - 0.5 x_7 * x_10 + 16.5 x_7 * x_11 - 24.0 x_7 * x_19 - 24.0 x_7 * x_20 + 4.5 x_7 * x_23 + 19.5 x_7 * x_27 + 1.5 x_7 * x_29 + 13.0 x_7 * x_32 + 18.5 x_7 * x_34 - 2.0 x_7 * x_39 - 15.5 x_7 * x_49 - 12.5 x_7 * x_51 + 24.5 x_7 * x_63 + 16.5 x_7 * x_64 + 16.0 x_7 * x_68 + 8.0 x_7 * x_69 + 17.5 x_7 * x_72 - 20.0 x_7 * x_74 - 8.0 x_7 * x_76 - 19.5 x_7 * x_79 - 21.5 x_8 * x_10 - 2.5 x_8 * x_14 + 7.5 x_8 * x_15 - 11.0 x_8 * x_18 + 23.5 x_8 * x_20 - 14.0 x_8 * x_26 - 13.0 x_8 * x_32 + 18.5 x_8 * x_34 + 8.0 x_8 * x_36 + 17.5 x_8 * x_38 + 8.0 x_8 * x_43 - 4.0 x_8 * x_45 + 16.5 x_8 * x_54 + 3.5 x_8 * x_64 - 20.5 x_8 * x_67 + 8.5 x_8 * x_72 - 20.0 x_8 * x_77 + 20.0 x_9 * x_1 - 11.0 x_9 * x_2 - 21.0 x_9 * x_3 + 13.0 x_9 * x_7 + 14.0 x_9 * x_10 - 20.0 x_9 * x_13 + 6.0 x_9 * x_22 + 7.0 x_9 * x_25 - 2.0 x_9 * x_26 + 14.5 x_9 * x_27 - 3.0 x_9 * x_32 - 24.5 x_9 * x_33 + 19.5 x_9 * x_38 + 1.0 x_9 * x_39 + 20.0 x_9 * x_40 + 11.5 x_9 * x_42 + 6.5 x_9 * x_46 + 11.5 x_9 * x_55 - 13.5 x_9 * x_57 + 5.5 x_9 * x_59 - 12.5 x_9 * x_61 - 4.5 x_9 * x_63 - 0.5 x_9 * x_67 + 9.5 x_9 * x_68 + 8.5 x_9 * x_75 + 8.5 x_10 * x_1 - 0.5 x_10 * x_7 - 21.5 x_10 * x_8 + 14.0 x_10 * x_9 - 16.5 x_10 * x_14 + 6.0 x_10 * x_18 - 9.0 x_10 * x_21 - 12.0 x_10 * x_23 + 17.5 x_10 * x_24 + 4.5 x_10 * x_27 + 15.0 x_10 * x_31 - 13.0 x_10 * x_34 - 4.0 x_10 * x_36 + 5.0 x_10 * x_40 + 16.0 x_10 * x_59 + 15.0 x_10 * x_61 - 24.5 x_10 * x_65 + 7.0 x_10 * x_67 + 24.5 x_10 * x_70 - 16.5 x_10 * x_74 - 18.5 x_10 * x_75 + 9.5 x_10 * x_76 - 20.0 x_11 * x_3 + 21.5 x_11 * x_4 + 13.5 x_11 * x_6 + 16.5 x_11 * x_7 + 9.0 x_11 * x_12 + 24.5 x_11 * x_17 + 6.0 x_11 * x_25 - 21.0 x_11 * x_34 + 5.5 x_11 * x_38 - 23.5 x_11 * x_39 + 16.0 x_11 * x_40 - 1.5 x_11 * x_44 - 8.5 x_11 * x_50 + 18.5 x_11 * x_57 - 15.5 x_11 * x_60 + 7.5 x_11 * x_61 - 9.5 x_11 * x_62 + 8.0 x_11 * x_79 + 9.0 x_12 * x_11 - 16.5 x_12 * x_12 - 24.5 x_12 * x_13 - 19.5 x_12 * x_18 - 20.0 x_12 * x_20 + 14.0 x_12 * x_23 - 4.0 x_12 * x_35 - 22.5 x_12 * x_37 + 5.5 x_12 * x_39 + 12.5 x_12 * x_41 + 12.0 x_12 * x_43 - 21.0 x_12 * x_52 + 22.5 x_12 * x_57 + 16.5 x_12 * x_65 - 4.5 x_12 * x_66 - 19.5 x_12 * x_67 + 0.5 x_12 * x_75 - 19.0 x_13 * x_4 - 20.0 x_13 * x_9 - 24.5 x_13 * x_12 + 17.0 x_13 * x_17 + 15.5 x_13 * x_19 + 9.0 x_13 * x_26 - 19.0 x_13 * x_29 - 24.0 x_13 * x_31 - 6.5 x_13 * x_33 - 14.0 x_13 * x_42 + 11.0 x_13 * x_46 - 17.0 x_13 * x_63 + 23.5 x_13 * x_74 + 17.0 x_13 * x_80 + 9.5 x_14 * x_3 - 2.5 x_14 * x_8 - 16.5 x_14 * x_10 + 8.0 x_14 * x_26 + 14.0 x_14 * x_28 + 13.0 x_14 * x_30 - 18.0 x_14 * x_31 - 23.5 x_14 * x_34 - 9.0 x_14 * x_40 - 24.5 x_14 * x_41 - 1.5 x_14 * x_45 - 16.0 x_14 * x_46 - 23.0 x_14 * x_53 + 18.5 x_14 * x_59 - 15.5 x_14 * x_61 + 10.0 x_14 * x_63 + 12.0 x_14 * x_64 + 4.0 x_14 * x_65 - 6.5 x_14 * x_68 - 20.0 x_14 * x_74 - 2.5 x_15 * x_2 + 8.5 x_15 * x_4 + 7.5 x_15 * x_8 + 11.5 x_15 * x_19 + 0.5 x_15 * x_20 + 24.5 x_15 * x_26 + 7.0 x_15 * x_27 + 20.0 x_15 * x_32 + 3.5 x_15 * x_34 + 15.5 x_15 * x_36 - 10.5 x_15 * x_37 - 16.5 x_15 * x_40 - 24.5 x_15 * x_48 + 20.0 x_15 * x_49 + 14.5 x_15 * x_50 - 21.5 x_15 * x_54 - 1.0 x_15 * x_60 + 2.0 x_15 * x_61 - 14.0 x_15 * x_69 - 13.5 x_15 * x_70 - 8.5 x_15 * x_76 - 9.0 x_16 * x_19 + 23.0 x_16 * x_33 - 6.0 x_16 * x_35 - 8.0 x_16 * x_38 + 15.5 x_16 * x_39 + 0.5 x_16 * x_40 - 24.5 x_16 * x_43 + 11.5 x_16 * x_49 - 1.0 x_16 * x_53 + 4.5 x_16 * x_55 - 20.0 x_16 * x_60 + 24.0 x_16 * x_65 - 16.0 x_16 * x_69 - 13.5 x_16 * x_73 - 12.0 x_16 * x_79 + 9.0 x_17 * x_5 + 24.5 x_17 * x_11 + 17.0 x_17 * x_13 - 0.5 x_17 * x_17 - 24.0 x_17 * x_29 + 9.5 x_17 * x_33 - 17.5 x_17 * x_37 - 16.5 x_17 * x_40 + 17.5 x_17 * x_44 + 12.5 x_17 * x_49 - 2.0 x_17 * x_57 - 21.0 x_17 * x_58 + 4.0 x_17 * x_61 - 4.0 x_17 * x_62 - 22.5 x_17 * x_63 - 18.5 x_17 * x_64 + 2.0 x_17 * x_78 - 14.0 x_17 * x_79 + 1.5 x_18 * x_1 - 11.0 x_18 * x_8 + 6.0 x_18 * x_10 - 19.5 x_18 * x_12 - 18.5 x_18 * x_19 + 7.0 x_18 * x_23 - 11.5 x_18 * x_24 - 7.5 x_18 * x_25 + 24.5 x_18 * x_27 - 18.0 x_18 * x_29 - 21.0 x_18 * x_30 + 20.5 x_18 * x_32 - 5.0 x_18 * x_35 + 23.5 x_18 * x_37 + 19.5 x_18 * x_39 + 3.0 x_18 * x_40 - 14.0 x_18 * x_43 + 8.0 x_18 * x_44 + 5.5 x_18 * x_45 + 3.0 x_18 * x_48 + 8.0 x_18 * x_49 - 8.5 x_18 * x_51 + 13.5 x_18 * x_54 + 21.5 x_18 * x_56 + 6.0 x_18 * x_59 + 22.5 x_18 * x_62 - 0.5 x_18 * x_67 + 5.5 x_18 * x_70 - 10.0 x_18 * x_78 - 5.5 x_18 * x_80 + 3.0 x_19 * x_1 - 7.5 x_19 * x_2 + 9.5 x_19 * x_3 - 14.5 x_19 * x_4 - 17.5 x_19 * x_6 - 24.0 x_19 * x_7 + 15.5 x_19 * x_13 + 11.5 x_19 * x_15 - 9.0 x_19 * x_16 - 18.5 x_19 * x_18 + 7.0 x_19 * x_20 + 16.0 x_19 * x_25 - 13.5 x_19 * x_26 + 17.5 x_19 * x_29 - 24.5 x_19 * x_35 + 8.0 x_19 * x_40 - 17.5 x_19 * x_53 - 14.0 x_19 * x_58 + 4.0 x_19 * x_60 - 9.5 x_19 * x_62 + 3.5 x_19 * x_64 + 3.5 x_19 * x_73 + 16.0 x_19 * x_79 + 1.5 x_20 * x_6 - 24.0 x_20 * x_7 + 23.5 x_20 * x_8 - 20.0 x_20 * x_12 + 0.5 x_20 * x_15 + 7.0 x_20 * x_19 - 16.5 x_20 * x_21 + 3.5 x_20 * x_24 + 22.5 x_20 * x_25 - 15.5 x_20 * x_32 + 1.5 x_20 * x_34 - 23.0 x_20 * x_37 + 20.0 x_20 * x_44 - 4.0 x_20 * x_47 + 7.0 x_20 * x_53 - 5.0 x_20 * x_55 + 21.5 x_20 * x_57 - 3.0 x_20 * x_63 - 2.5 x_20 * x_72 + 20.0 x_20 * x_74 + 2.0 x_20 * x_78 - 14.0 x_21 * x_1 + 3.5 x_21 * x_5 + 14.0 x_21 * x_6 - 9.0 x_21 * x_10 - 16.5 x_21 * x_20 - 5.5 x_21 * x_21 + 23.5 x_21 * x_31 + 21.0 x_21 * x_35 + 7.0 x_21 * x_38 - 4.0 x_21 * x_49 + 12.5 x_21 * x_52 + 23.0 x_21 * x_62 + 23.0 x_21 * x_66 - 4.0 x_21 * x_71 - 10.5 x_21 * x_76 + 4.0 x_21 * x_77 + 6.0 x_22 * x_9 - 1.0 x_22 * x_28 - 1.0 x_22 * x_31 + 2.0 x_22 * x_35 + 5.0 x_22 * x_38 - 9.5 x_22 * x_39 + 3.5 x_22 * x_57 + 22.0 x_22 * x_58 - 3.5 x_22 * x_59 - 18.0 x_22 * x_64 + 24.0 x_22 * x_70 - 6.0 x_22 * x_79 + 1.5 x_23 * x_1 - 18.5 x_23 * x_2 - 21.0 x_23 * x_3 + 4.5 x_23 * x_7 - 12.0 x_23 * x_10 + 14.0 x_23 * x_12 + 7.0 x_23 * x_18 - 24.5 x_23 * x_29 + 7.0 x_23 * x_32 - 7.0 x_23 * x_36 - 5.0 x_23 * x_40 - 24.5 x_23 * x_44 - 8.5 x_23 * x_52 + 16.5 x_23 * x_53 + 15.0 x_23 * x_59 + 24.5 x_23 * x_60 - 17.0 x_23 * x_64 + 4.0 x_23 * x_80 - 9.0 x_24 * x_1 - 21.5 x_24 * x_3 - 16.0 x_24 * x_4 - 8.5 x_24 * x_6 + 17.5 x_24 * x_10 - 11.5 x_24 * x_18 + 3.5 x_24 * x_20 + 8.5 x_24 * x_27 - 20.5 x_24 * x_30 - 17.5 x_24 * x_31 + 1.0 x_24 * x_33 + 12.0 x_24 * x_36 - 15.0 x_24 * x_39 + 12.0 x_24 * x_42 - 5.5 x_24 * x_44 - 19.0 x_24 * x_51 - 21.0 x_24 * x_52 - 3.0 x_24 * x_58 - 20.0 x_24 * x_69 - 10.5 x_24 * x_70 + 19.5 x_24 * x_72 - 11.0 x_24 * x_76 - 9.0 x_24 * x_80 - 18.0 x_25 * x_2 + 7.0 x_25 * x_9 + 6.0 x_25 * x_11 - 7.5 x_25 * x_18 + 16.0 x_25 * x_19 + 22.5 x_25 * x_20 + 4.5 x_25 * x_33 + 16.0 x_25 * x_35 - 11.0 x_25 * x_36 - 14.5 x_25 * x_39 - 12.0 x_25 * x_40 - 2.0 x_25 * x_45 - 14.0 x_25 * x_54 + 4.5 x_25 * x_55 - 19.0 x_25 * x_59 - 9.5 x_25 * x_63 - 10.5 x_25 * x_72 - 13.0 x_25 * x_73 - 13.0 x_25 * x_74 - 4.5 x_25 * x_77 + 24.5 x_25 * x_78 + 2.0 x_26 * x_3 - 14.0 x_26 * x_8 - 2.0 x_26 * x_9 + 9.0 x_26 * x_13 + 8.0 x_26 * x_14 + 24.5 x_26 * x_15 - 13.5 x_26 * x_19 - 15.0 x_26 * x_31 + 11.0 x_26 * x_33 - 3.0 x_26 * x_35 + 24.5 x_26 * x_37 - 4.5 x_26 * x_40 - 4.0 x_26 * x_43 - 15.5 x_26 * x_45 - 4.0 x_26 * x_48 + 3.0 x_26 * x_51 + 7.5 x_26 * x_52 + 3.5 x_26 * x_55 + 16.5 x_26 * x_60 + 10.5 x_26 * x_68 + 18.5 x_26 * x_69 - 21.5 x_26 * x_70 - 10.0 x_26 * x_74 + 5.5 x_26 * x_76 - 8.5 x_26 * x_77 + 2.0 x_27 * x_3 - 4.0 x_27 * x_6 + 19.5 x_27 * x_7 + 14.5 x_27 * x_9 + 4.5 x_27 * x_10 + 7.0 x_27 * x_15 + 24.5 x_27 * x_18 + 8.5 x_27 * x_24 + 3.5 x_27 * x_30 + 21.0 x_27 * x_38 - 22.0 x_27 * x_41 + 8.5 x_27 * x_43 + 17.0 x_27 * x_44 + 21.5 x_27 * x_45 + 21.0 x_27 * x_50 - 18.5 x_27 * x_51 + 13.0 x_27 * x_54 - 4.5 x_27 * x_59 - 16.0 x_27 * x_64 - 5.5 x_27 * x_67 - 13.5 x_27 * x_68 - 5.5 x_27 * x_75 + 6.5 x_27 * x_76 + 5.5 x_27 * x_77 - 21.0 x_27 * x_79 + 5.5 x_28 * x_4 + 14.0 x_28 * x_14 - 1.0 x_28 * x_22 - 7.0 x_28 * x_30 + 13.5 x_28 * x_31 - 2.0 x_28 * x_33 - 9.5 x_28 * x_44 + 12.5 x_28 * x_46 - 16.5 x_28 * x_55 - 4.5 x_28 * x_60 - 4.5 x_28 * x_61 + 11.5 x_28 * x_64 - 16.5 x_28 * x_67 - 1.5 x_28 * x_70 + 8.0 x_28 * x_75 + 9.0 x_29 * x_1 + 1.5 x_29 * x_7 - 19.0 x_29 * x_13 - 24.0 x_29 * x_17 - 18.0 x_29 * x_18 + 17.5 x_29 * x_19 - 24.5 x_29 * x_23 + 12.5 x_29 * x_29 - 13.0 x_29 * x_43 + 15.0 x_29 * x_54 + 6.5 x_29 * x_57 - 12.0 x_29 * x_60 + 13.5 x_29 * x_62 - 10.5 x_29 * x_63 + 14.5 x_29 * x_65 + 4.0 x_29 * x_66 - 1.5 x_29 * x_69 + 6.0 x_29 * x_74 - 13.0 x_29 * x_79 - 0.5 x_30 * x_1 + 13.0 x_30 * x_14 - 21.0 x_30 * x_18 - 20.5 x_30 * x_24 + 3.5 x_30 * x_27 - 7.0 x_30 * x_28 + 23.0 x_30 * x_36 - 22.0 x_30 * x_37 - 2.0 x_30 * x_44 - 20.5 x_30 * x_45 + 22.5 x_30 * x_51 + 22.0 x_30 * x_53 + 1.0 x_30 * x_62 + 21.0 x_30 * x_65 - 3.5 x_30 * x_75 - 1.0 x_30 * x_76 - 3.0 x_31 * x_3 + 15.0 x_31 * x_10 - 24.0 x_31 * x_13 - 18.0 x_31 * x_14 + 23.5 x_31 * x_21 - 1.0 x_31 * x_22 - 17.5 x_31 * x_24 - 15.0 x_31 * x_26 + 13.5 x_31 * x_28 - 11.0 x_31 * x_31 + 20.0 x_31 * x_33 + 12.5 x_31 * x_39 + 11.5 x_31 * x_40 - 16.5 x_31 * x_43 - 13.5 x_31 * x_46 - 20.0 x_31 * x_48 - 15.0 x_31 * x_49 + 10.5 x_31 * x_50 - 2.0 x_31 * x_57 + 16.5 x_31 * x_58 - 2.0 x_31 * x_63 - 19.0 x_31 * x_65 + 4.0 x_31 * x_69 + 14.0 x_31 * x_73 - 4.0 x_31 * x_77 + 23.5 x_32 * x_5 + 13.0 x_32 * x_7 - 13.0 x_32 * x_8 - 3.0 x_32 * x_9 + 20.0 x_32 * x_15 + 20.5 x_32 * x_18 - 15.5 x_32 * x_20 + 7.0 x_32 * x_23 + 15.5 x_32 * x_33 - 13.5 x_32 * x_39 - 2.5 x_32 * x_51 - 4.0 x_32 * x_53 + 15.0 x_32 * x_56 + 13.5 x_32 * x_63 + 22.0 x_32 * x_64 - 0.5 x_32 * x_66 + 17.0 x_32 * x_68 - 4.5 x_32 * x_73 - 15.5 x_32 * x_77 + 15.0 x_33 * x_2 + 13.5 x_33 * x_4 + 11.5 x_33 * x_6 - 24.5 x_33 * x_9 - 6.5 x_33 * x_13 + 23.0 x_33 * x_16 + 9.5 x_33 * x_17 + 1.0 x_33 * x_24 + 4.5 x_33 * x_25 + 11.0 x_33 * x_26 - 2.0 x_33 * x_28 + 20.0 x_33 * x_31 + 15.5 x_33 * x_32 - 5.5 x_33 * x_36 + 23.5 x_33 * x_39 - 3.5 x_33 * x_44 + 4.0 x_33 * x_46 + 6.0 x_33 * x_48 - 2.0 x_33 * x_50 + 20.5 x_33 * x_53 + 19.0 x_33 * x_54 - 2.5 x_33 * x_55 + 7.5 x_33 * x_64 + 15.5 x_33 * x_72 - 8.0 x_33 * x_80 + 18.5 x_34 * x_7 + 18.5 x_34 * x_8 - 13.0 x_34 * x_10 - 21.0 x_34 * x_11 - 23.5 x_34 * x_14 + 3.5 x_34 * x_15 + 1.5 x_34 * x_20 - 8.0 x_34 * x_34 + 0.5 x_34 * x_38 + 23.0 x_34 * x_41 + 12.5 x_34 * x_47 + 23.0 x_34 * x_48 + 11.5 x_34 * x_52 + 19.5 x_34 * x_53 - 2.5 x_34 * x_59 - 0.5 x_34 * x_60 + 20.0 x_34 * x_62 + 9.5 x_34 * x_66 - 11.5 x_34 * x_70 + 7.0 x_34 * x_71 - 2.5 x_34 * x_72 + 9.5 x_34 * x_75 + 24.5 x_34 * x_79 - 20.5 x_35 * x_1 - 21.0 x_35 * x_5 - 4.0 x_35 * x_12 - 6.0 x_35 * x_16 - 5.0 x_35 * x_18 - 24.5 x_35 * x_19 + 21.0 x_35 * x_21 + 2.0 x_35 * x_22 + 16.0 x_35 * x_25 - 3.0 x_35 * x_26 + 12.0 x_35 * x_42 - 23.5 x_35 * x_43 + 23.0 x_35 * x_56 + 13.5 x_35 * x_62 - 11.0 x_35 * x_66 - 11.0 x_35 * x_68 - 13.0 x_35 * x_69 - 0.5 x_35 * x_71 - 6.0 x_35 * x_76 - 16.0 x_35 * x_77 + 24.5 x_36 * x_2 + 11.0 x_36 * x_3 + 7.5 x_36 * x_5 + 17.5 x_36 * x_6 + 8.0 x_36 * x_8 - 4.0 x_36 * x_10 + 15.5 x_36 * x_15 - 7.0 x_36 * x_23 + 12.0 x_36 * x_24 - 11.0 x_36 * x_25 + 23.0 x_36 * x_30 - 5.5 x_36 * x_33 + 2.0 x_36 * x_42 - 23.5 x_36 * x_43 - 0.5 x_36 * x_49 - 21.5 x_36 * x_53 - 24.0 x_36 * x_58 - 2.5 x_36 * x_66 + 7.5 x_36 * x_72 - 6.0 x_36 * x_74 - 22.5 x_37 * x_12 - 10.5 x_37 * x_15 - 17.5 x_37 * x_17 + 23.5 x_37 * x_18 - 23.0 x_37 * x_20 + 24.5 x_37 * x_26 - 22.0 x_37 * x_30 + 19.5 x_37 * x_38 + 23.5 x_37 * x_44 - 23.0 x_37 * x_53 - 9.5 x_37 * x_56 + 21.0 x_37 * x_63 + 5.5 x_37 * x_67 + 1.0 x_37 * x_70 - 15.0 x_37 * x_72 + 6.0 x_37 * x_75 - 1.5 x_37 * x_76 - 2.0 x_37 * x_77 + 22.0 x_37 * x_78 - 14.5 x_37 * x_79 - 7.0 x_38 * x_1 + 17.5 x_38 * x_8 + 19.5 x_38 * x_9 + 5.5 x_38 * x_11 - 8.0 x_38 * x_16 + 7.0 x_38 * x_21 + 5.0 x_38 * x_22 + 21.0 x_38 * x_27 + 0.5 x_38 * x_34 + 19.5 x_38 * x_37 + 4.0 x_38 * x_38 + 11.0 x_38 * x_39 + 12.0 x_38 * x_40 - 15.0 x_38 * x_47 - 23.5 x_38 * x_50 - 20.0 x_38 * x_54 - 7.0 x_38 * x_58 - 20.5 x_38 * x_61 - 20.0 x_38 * x_63 - 18.5 x_38 * x_67 - 10.0 x_38 * x_72 + 12.5 x_38 * x_79 - 21.5 x_39 * x_1 - 2.0 x_39 * x_7 + 1.0 x_39 * x_9 - 23.5 x_39 * x_11 + 5.5 x_39 * x_12 + 15.5 x_39 * x_16 + 19.5 x_39 * x_18 - 9.5 x_39 * x_22 - 15.0 x_39 * x_24 - 14.5 x_39 * x_25 + 12.5 x_39 * x_31 - 13.5 x_39 * x_32 + 23.5 x_39 * x_33 + 11.0 x_39 * x_38 - 19.0 x_39 * x_43 + 17.0 x_39 * x_60 + 3.5 x_39 * x_71 + 18.0 x_39 * x_73 + 6.0 x_39 * x_77 + 7.5 x_40 * x_1 + 6.5 x_40 * x_2 + 20.0 x_40 * x_9 + 5.0 x_40 * x_10 + 16.0 x_40 * x_11 - 9.0 x_40 * x_14 - 16.5 x_40 * x_15 + 0.5 x_40 * x_16 - 16.5 x_40 * x_17 + 3.0 x_40 * x_18 + 8.0 x_40 * x_19 - 5.0 x_40 * x_23 - 12.0 x_40 * x_25 - 4.5 x_40 * x_26 + 11.5 x_40 * x_31 + 12.0 x_40 * x_38 + 3.5 x_40 * x_41 + 16.5 x_40 * x_45 + 22.5 x_40 * x_52 - 15.5 x_40 * x_53 + 23.0 x_40 * x_54 - 4.0 x_40 * x_55 - 20.5 x_40 * x_63 - 0.5 x_40 * x_69 - 22.5 x_40 * x_71 + 14.5 x_40 * x_72 - 12.5 x_40 * x_73 - 13.5 x_40 * x_78 + 15.5 x_41 * x_5 + 12.5 x_41 * x_12 - 24.5 x_41 * x_14 - 22.0 x_41 * x_27 + 23.0 x_41 * x_34 + 3.5 x_41 * x_40 + 6.5 x_41 * x_41 - 3.5 x_41 * x_43 + 17.5 x_41 * x_51 - 23.5 x_41 * x_58 - 8.0 x_41 * x_60 + 7.5 x_41 * x_61 + 1.5 x_41 * x_62 - 0.5 x_41 * x_65 - 23.5 x_41 * x_66 - 19.0 x_41 * x_67 - 4.0 x_41 * x_68 + 3.0 x_41 * x_78 - 12.0 x_41 * x_79 + 1.5 x_41 * x_80 + 20.0 x_42 * x_5 + 11.5 x_42 * x_9 - 14.0 x_42 * x_13 + 12.0 x_42 * x_24 + 12.0 x_42 * x_35 + 2.0 x_42 * x_36 - 22.0 x_42 * x_47 - 5.0 x_42 * x_51 - 7.0 x_42 * x_55 + 20.0 x_42 * x_70 - 16.5 x_42 * x_73 + 16.5 x_43 * x_3 - 24.0 x_43 * x_5 + 8.0 x_43 * x_8 + 12.0 x_43 * x_12 - 24.5 x_43 * x_16 - 14.0 x_43 * x_18 - 4.0 x_43 * x_26 + 8.5 x_43 * x_27 - 13.0 x_43 * x_29 - 16.5 x_43 * x_31 - 23.5 x_43 * x_35 - 23.5 x_43 * x_36 - 19.0 x_43 * x_39 - 3.5 x_43 * x_41 + 20.0 x_43 * x_52 - 12.5 x_43 * x_54 - 23.0 x_43 * x_60 - 10.0 x_43 * x_67 + 20.0 x_43 * x_72 + 17.0 x_43 * x_76 + 23.0 x_44 * x_6 - 1.5 x_44 * x_11 + 17.5 x_44 * x_17 + 8.0 x_44 * x_18 + 20.0 x_44 * x_20 - 24.5 x_44 * x_23 - 5.5 x_44 * x_24 + 17.0 x_44 * x_27 - 9.5 x_44 * x_28 - 2.0 x_44 * x_30 - 3.5 x_44 * x_33 + 23.5 x_44 * x_37 + 9.5 x_44 * x_45 - 18.5 x_44 * x_47 - 22.0 x_44 * x_50 - 20.0 x_44 * x_53 + 6.5 x_44 * x_60 - 10.5 x_44 * x_69 + 15.0 x_44 * x_76 + 12.5 x_44 * x_77 + 3.5 x_44 * x_80 - 20.0 x_45 * x_2 - 4.0 x_45 * x_8 - 1.5 x_45 * x_14 + 5.5 x_45 * x_18 - 2.0 x_45 * x_25 - 15.5 x_45 * x_26 + 21.5 x_45 * x_27 - 20.5 x_45 * x_30 + 16.5 x_45 * x_40 + 9.5 x_45 * x_44 - 11.0 x_45 * x_45 + 6.5 x_45 * x_49 - 3.5 x_45 * x_68 + 8.0 x_45 * x_69 - 20.5 x_45 * x_70 - 17.5 x_45 * x_72 - 16.0 x_45 * x_79 - 8.5 x_46 * x_3 - 18.0 x_46 * x_6 + 6.5 x_46 * x_9 + 11.0 x_46 * x_13 - 16.0 x_46 * x_14 + 12.5 x_46 * x_28 - 13.5 x_46 * x_31 + 4.0 x_46 * x_33 + 17.0 x_46 * x_57 - 14.5 x_46 * x_59 - 7.0 x_46 * x_60 + 2.5 x_46 * x_61 + 5.0 x_46 * x_69 + 8.5 x_46 * x_72 + 17.5 x_46 * x_73 - 14.5 x_47 * x_3 - 15.5 x_47 * x_5 - 4.0 x_47 * x_20 + 12.5 x_47 * x_34 - 15.0 x_47 * x_38 - 22.0 x_47 * x_42 - 18.5 x_47 * x_44 - 17.0 x_47 * x_53 + 13.5 x_47 * x_55 + 18.5 x_47 * x_56 + 20.0 x_47 * x_59 + 13.5 x_47 * x_60 + 15.0 x_47 * x_62 - 4.5 x_47 * x_66 - 23.5 x_47 * x_71 + 11.5 x_47 * x_76 + 19.5 x_47 * x_80 - 10.5 x_48 * x_1 - 24.5 x_48 * x_15 + 3.0 x_48 * x_18 - 4.0 x_48 * x_26 - 20.0 x_48 * x_31 + 6.0 x_48 * x_33 + 23.0 x_48 * x_34 - 14.0 x_48 * x_52 + 3.5 x_48 * x_55 + 3.5 x_48 * x_56 + 2.5 x_48 * x_57 + 4.5 x_48 * x_61 - 7.5 x_48 * x_63 + 4.0 x_48 * x_65 - 23.5 x_49 * x_3 - 15.5 x_49 * x_7 + 20.0 x_49 * x_15 + 11.5 x_49 * x_16 + 12.5 x_49 * x_17 + 8.0 x_49 * x_18 - 4.0 x_49 * x_21 - 15.0 x_49 * x_31 - 0.5 x_49 * x_36 + 6.5 x_49 * x_45 - 6.0 x_49 * x_50 - 8.0 x_49 * x_59 + 20.0 x_49 * x_61 - 13.5 x_49 * x_67 - 2.0 x_49 * x_72 + 19.5 x_49 * x_73 + 13.5 x_49 * x_78 - 8.5 x_50 * x_11 + 14.5 x_50 * x_15 + 21.0 x_50 * x_27 + 10.5 x_50 * x_31 - 2.0 x_50 * x_33 - 23.5 x_50 * x_38 - 22.0 x_50 * x_44 - 6.0 x_50 * x_49 - 6.5 x_50 * x_58 - 7.0 x_50 * x_62 - 7.0 x_50 * x_63 + 24.0 x_50 * x_64 + 2.0 x_50 * x_65 - 16.5 x_50 * x_66 + 11.5 x_50 * x_71 + 9.0 x_50 * x_78 - 9.0 x_51 * x_5 - 12.5 x_51 * x_7 - 8.5 x_51 * x_18 - 19.0 x_51 * x_24 + 3.0 x_51 * x_26 - 18.5 x_51 * x_27 + 22.5 x_51 * x_30 - 2.5 x_51 * x_32 + 17.5 x_51 * x_41 - 5.0 x_51 * x_42 - 18.0 x_51 * x_61 + 13.5 x_51 * x_64 + 6.5 x_51 * x_66 + 1.5 x_51 * x_70 + 21.0 x_51 * x_72 - 14.5 x_52 * x_2 - 21.0 x_52 * x_12 + 12.5 x_52 * x_21 - 8.5 x_52 * x_23 - 21.0 x_52 * x_24 + 7.5 x_52 * x_26 + 11.5 x_52 * x_34 + 22.5 x_52 * x_40 + 20.0 x_52 * x_43 - 14.0 x_52 * x_48 + 7.5 x_52 * x_56 - 7.5 x_52 * x_68 - 11.5 x_52 * x_70 + 2.0 x_52 * x_73 - 23.0 x_53 * x_14 - 1.0 x_53 * x_16 - 17.5 x_53 * x_19 + 7.0 x_53 * x_20 + 16.5 x_53 * x_23 + 22.0 x_53 * x_30 - 4.0 x_53 * x_32 + 20.5 x_53 * x_33 + 19.5 x_53 * x_34 - 21.5 x_53 * x_36 - 23.0 x_53 * x_37 - 15.5 x_53 * x_40 - 20.0 x_53 * x_44 - 17.0 x_53 * x_47 - 7.5 x_53 * x_55 + 22.0 x_53 * x_57 - 17.0 x_53 * x_58 + 1.0 x_53 * x_59 + 12.0 x_53 * x_60 + 11.0 x_53 * x_63 + 21.5 x_53 * x_64 - 7.0 x_53 * x_68 - 17.0 x_53 * x_69 + 10.0 x_54 * x_4 + 10.0 x_54 * x_6 + 16.5 x_54 * x_8 - 21.5 x_54 * x_15 + 13.5 x_54 * x_18 - 14.0 x_54 * x_25 + 13.0 x_54 * x_27 + 15.0 x_54 * x_29 + 19.0 x_54 * x_33 - 20.0 x_54 * x_38 + 23.0 x_54 * x_40 - 12.5 x_54 * x_43 + 2.0 x_54 * x_56 + 14.5 x_54 * x_61 - 21.5 x_54 * x_62 - 2.5 x_54 * x_64 + 19.5 x_54 * x_71 - 19.5 x_54 * x_77 - 21.5 x_55 * x_1 + 21.0 x_55 * x_3 + 11.5 x_55 * x_9 + 4.5 x_55 * x_16 - 5.0 x_55 * x_20 + 4.5 x_55 * x_25 + 3.5 x_55 * x_26 - 16.5 x_55 * x_28 - 2.5 x_55 * x_33 - 4.0 x_55 * x_40 - 7.0 x_55 * x_42 + 13.5 x_55 * x_47 + 3.5 x_55 * x_48 - 7.5 x_55 * x_53 - 23.0 x_55 * x_58 + 22.0 x_55 * x_62 + 6.5 x_55 * x_64 + 9.5 x_55 * x_66 - 3.0 x_55 * x_67 - 8.0 x_55 * x_70 + 20.5 x_55 * x_73 - 14.0 x_55 * x_77 + 21.5 x_56 * x_18 + 15.0 x_56 * x_32 + 23.0 x_56 * x_35 - 9.5 x_56 * x_37 + 18.5 x_56 * x_47 + 3.5 x_56 * x_48 + 7.5 x_56 * x_52 + 2.0 x_56 * x_54 + 1.5 x_56 * x_59 + 13.5 x_56 * x_65 + 23.0 x_56 * x_66 - 18.0 x_56 * x_71 - 1.5 x_56 * x_73 + 20.5 x_56 * x_75 - 13.5 x_57 * x_9 + 18.5 x_57 * x_11 + 22.5 x_57 * x_12 - 2.0 x_57 * x_17 + 21.5 x_57 * x_20 + 3.5 x_57 * x_22 + 6.5 x_57 * x_29 - 2.0 x_57 * x_31 + 17.0 x_57 * x_46 + 2.5 x_57 * x_48 + 22.0 x_57 * x_53 - 13.0 x_57 * x_57 + 9.0 x_57 * x_59 - 11.5 x_57 * x_60 + 22.0 x_57 * x_68 + 4.5 x_57 * x_71 - 16.5 x_57 * x_78 - 13.5 x_57 * x_80 + 18.0 x_58 * x_2 - 2.0 x_58 * x_5 - 21.0 x_58 * x_17 - 14.0 x_58 * x_19 + 22.0 x_58 * x_22 - 3.0 x_58 * x_24 + 16.5 x_58 * x_31 - 24.0 x_58 * x_36 - 7.0 x_58 * x_38 - 23.5 x_58 * x_41 - 6.5 x_58 * x_50 - 17.0 x_58 * x_53 - 23.0 x_58 * x_55 - 14.5 x_58 * x_60 - 7.5 x_58 * x_65 + 17.0 x_58 * x_67 + 7.0 x_58 * x_69 - 5.0 x_58 * x_70 - 16.0 x_58 * x_73 + 6.0 x_58 * x_78 + 15.5 x_58 * x_79 - 18.5 x_59 * x_2 + 19.0 x_59 * x_3 + 5.5 x_59 * x_9 + 16.0 x_59 * x_10 + 18.5 x_59 * x_14 + 6.0 x_59 * x_18 - 3.5 x_59 * x_22 + 15.0 x_59 * x_23 - 19.0 x_59 * x_25 - 4.5 x_59 * x_27 - 2.5 x_59 * x_34 - 14.5 x_59 * x_46 + 20.0 x_59 * x_47 - 8.0 x_59 * x_49 + 1.0 x_59 * x_53 + 1.5 x_59 * x_56 + 9.0 x_59 * x_57 - 22.5 x_59 * x_62 - 13.5 x_59 * x_67 + 20.5 x_59 * x_74 - 15.0 x_59 * x_80 + 18.0 x_60 * x_3 - 15.5 x_60 * x_11 - 1.0 x_60 * x_15 - 20.0 x_60 * x_16 + 4.0 x_60 * x_19 + 24.5 x_60 * x_23 + 16.5 x_60 * x_26 - 4.5 x_60 * x_28 - 12.0 x_60 * x_29 - 0.5 x_60 * x_34 + 17.0 x_60 * x_39 - 8.0 x_60 * x_41 - 23.0 x_60 * x_43 + 6.5 x_60 * x_44 - 7.0 x_60 * x_46 + 13.5 x_60 * x_47 + 12.0 x_60 * x_53 - 11.5 x_60 * x_57 - 14.5 x_60 * x_58 + 1.5 x_60 * x_61 + 4.5 x_60 * x_68 - 5.0 x_60 * x_70 + 16.5 x_60 * x_73 + 3.5 x_61 * x_5 - 12.5 x_61 * x_9 + 15.0 x_61 * x_10 + 7.5 x_61 * x_11 - 15.5 x_61 * x_14 + 2.0 x_61 * x_15 + 4.0 x_61 * x_17 - 4.5 x_61 * x_28 - 20.5 x_61 * x_38 + 7.5 x_61 * x_41 + 2.5 x_61 * x_46 + 4.5 x_61 * x_48 + 20.0 x_61 * x_49 - 18.0 x_61 * x_51 + 14.5 x_61 * x_54 + 1.5 x_61 * x_60 + 2.0 x_61 * x_67 - 19.5 x_61 * x_73 - 11.5 x_61 * x_74 - 23.0 x_61 * x_80 - 10.5 x_62 * x_2 + 5.0 x_62 * x_3 - 2.5 x_62 * x_4 + 5.5 x_62 * x_5 - 6.5 x_62 * x_6 - 9.5 x_62 * x_11 - 4.0 x_62 * x_17 + 22.5 x_62 * x_18 - 9.5 x_62 * x_19 + 23.0 x_62 * x_21 + 13.5 x_62 * x_29 + 1.0 x_62 * x_30 + 20.0 x_62 * x_34 + 13.5 x_62 * x_35 + 1.5 x_62 * x_41 + 15.0 x_62 * x_47 - 7.0 x_62 * x_50 - 21.5 x_62 * x_54 + 22.0 x_62 * x_55 - 22.5 x_62 * x_59 + 8.5 x_62 * x_64 - 19.0 x_62 * x_70 + 12.0 x_62 * x_74 + 24.5 x_63 * x_2 - 18.0 x_63 * x_5 + 24.5 x_63 * x_7 - 4.5 x_63 * x_9 - 17.0 x_63 * x_13 + 10.0 x_63 * x_14 - 22.5 x_63 * x_17 - 3.0 x_63 * x_20 - 9.5 x_63 * x_25 - 10.5 x_63 * x_29 - 2.0 x_63 * x_31 + 13.5 x_63 * x_32 + 21.0 x_63 * x_37 - 20.0 x_63 * x_38 - 20.5 x_63 * x_40 - 7.5 x_63 * x_48 - 7.0 x_63 * x_50 + 11.0 x_63 * x_53 - 12.5 x_63 * x_66 - 13.5 x_63 * x_68 - 18.5 x_63 * x_69 - 6.5 x_63 * x_75 - 2.5 x_64 * x_5 + 16.5 x_64 * x_7 + 3.5 x_64 * x_8 + 12.0 x_64 * x_14 - 18.5 x_64 * x_17 + 3.5 x_64 * x_19 - 18.0 x_64 * x_22 - 17.0 x_64 * x_23 - 16.0 x_64 * x_27 + 11.5 x_64 * x_28 + 22.0 x_64 * x_32 + 7.5 x_64 * x_33 + 24.0 x_64 * x_50 + 13.5 x_64 * x_51 + 21.5 x_64 * x_53 - 2.5 x_64 * x_54 + 6.5 x_64 * x_55 + 8.5 x_64 * x_62 - 2.5 x_64 * x_65 - 2.0 x_64 * x_73 + 24.5 x_64 * x_74 - 20.5 x_64 * x_77 - 7.5 x_64 * x_78 - 2.0 x_65 * x_1 - 1.0 x_65 * x_3 - 24.5 x_65 * x_10 + 16.5 x_65 * x_12 + 4.0 x_65 * x_14 + 24.0 x_65 * x_16 + 14.5 x_65 * x_29 + 21.0 x_65 * x_30 - 19.0 x_65 * x_31 - 0.5 x_65 * x_41 + 4.0 x_65 * x_48 + 2.0 x_65 * x_50 + 13.5 x_65 * x_56 - 7.5 x_65 * x_58 - 2.5 x_65 * x_64 + 11.0 x_65 * x_71 + 14.0 x_65 * x_73 + 7.5 x_65 * x_74 + 16.0 x_65 * x_78 - 19.0 x_66 * x_1 - 4.5 x_66 * x_12 + 23.0 x_66 * x_21 + 4.0 x_66 * x_29 - 0.5 x_66 * x_32 + 9.5 x_66 * x_34 - 11.0 x_66 * x_35 - 2.5 x_66 * x_36 - 23.5 x_66 * x_41 - 4.5 x_66 * x_47 - 16.5 x_66 * x_50 + 6.5 x_66 * x_51 + 9.5 x_66 * x_55 + 23.0 x_66 * x_56 - 12.5 x_66 * x_63 - 23.0 x_66 * x_70 - 0.5 x_66 * x_71 - 12.5 x_66 * x_76 + 15.0 x_66 * x_78 + 19.5 x_67 * x_4 - 20.5 x_67 * x_8 - 0.5 x_67 * x_9 + 7.0 x_67 * x_10 - 19.5 x_67 * x_12 - 0.5 x_67 * x_18 - 5.5 x_67 * x_27 - 16.5 x_67 * x_28 + 5.5 x_67 * x_37 - 18.5 x_67 * x_38 - 19.0 x_67 * x_41 - 10.0 x_67 * x_43 - 13.5 x_67 * x_49 - 3.0 x_67 * x_55 + 17.0 x_67 * x_58 - 13.5 x_67 * x_59 + 2.0 x_67 * x_61 + 11.0 x_67 * x_68 + 23.0 x_67 * x_69 + 2.5 x_67 * x_72 - 22.5 x_67 * x_75 + 9.0 x_67 * x_77 - 5.0 x_67 * x_79 + 23.0 x_68 * x_1 + 20.5 x_68 * x_4 + 17.0 x_68 * x_5 + 16.0 x_68 * x_7 + 9.5 x_68 * x_9 - 6.5 x_68 * x_14 + 10.5 x_68 * x_26 - 13.5 x_68 * x_27 + 17.0 x_68 * x_32 - 11.0 x_68 * x_35 - 4.0 x_68 * x_41 - 3.5 x_68 * x_45 - 7.5 x_68 * x_52 - 7.0 x_68 * x_53 + 22.0 x_68 * x_57 + 4.5 x_68 * x_60 - 13.5 x_68 * x_63 + 11.0 x_68 * x_67 + 8.5 x_68 * x_68 + 19.0 x_68 * x_73 - 5.5 x_68 * x_79 + 5.0 x_68 * x_80 + 12.0 x_69 * x_6 + 8.0 x_69 * x_7 - 14.0 x_69 * x_15 - 16.0 x_69 * x_16 - 20.0 x_69 * x_24 + 18.5 x_69 * x_26 - 1.5 x_69 * x_29 + 4.0 x_69 * x_31 - 13.0 x_69 * x_35 - 0.5 x_69 * x_40 - 10.5 x_69 * x_44 + 8.0 x_69 * x_45 + 5.0 x_69 * x_46 - 17.0 x_69 * x_53 + 7.0 x_69 * x_58 - 18.5 x_69 * x_63 + 23.0 x_69 * x_67 - 16.5 x_70 * x_1 + 24.5 x_70 * x_10 - 13.5 x_70 * x_15 + 5.5 x_70 * x_18 + 24.0 x_70 * x_22 - 10.5 x_70 * x_24 - 21.5 x_70 * x_26 - 1.5 x_70 * x_28 - 11.5 x_70 * x_34 + 1.0 x_70 * x_37 + 20.0 x_70 * x_42 - 20.5 x_70 * x_45 + 1.5 x_70 * x_51 - 11.5 x_70 * x_52 - 8.0 x_70 * x_55 - 5.0 x_70 * x_58 - 5.0 x_70 * x_60 - 19.0 x_70 * x_62 - 23.0 x_70 * x_66 - 20.0 x_70 * x_71 - 11.5 x_70 * x_76 - 3.0 x_70 * x_77 + 17.0 x_70 * x_78 + 5.0 x_70 * x_79 + 11.0 x_71 * x_1 - 19.0 x_71 * x_4 - 2.0 x_71 * x_6 - 4.0 x_71 * x_21 + 7.0 x_71 * x_34 - 0.5 x_71 * x_35 + 3.5 x_71 * x_39 - 22.5 x_71 * x_40 - 23.5 x_71 * x_47 + 11.5 x_71 * x_50 + 19.5 x_71 * x_54 - 18.0 x_71 * x_56 + 4.5 x_71 * x_57 + 11.0 x_71 * x_65 - 0.5 x_71 * x_66 - 20.0 x_71 * x_70 + 13.5 x_71 * x_75 - 18.5 x_71 * x_76 + 17.5 x_72 * x_7 + 8.5 x_72 * x_8 - 2.5 x_72 * x_20 + 19.5 x_72 * x_24 - 10.5 x_72 * x_25 + 15.5 x_72 * x_33 - 2.5 x_72 * x_34 + 7.5 x_72 * x_36 - 15.0 x_72 * x_37 - 10.0 x_72 * x_38 + 14.5 x_72 * x_40 + 20.0 x_72 * x_43 - 17.5 x_72 * x_45 + 8.5 x_72 * x_46 - 2.0 x_72 * x_49 + 21.0 x_72 * x_51 + 2.5 x_72 * x_67 + 3.5 x_72 * x_80 - 3.0 x_73 * x_4 - 21.5 x_73 * x_5 - 13.5 x_73 * x_16 + 3.5 x_73 * x_19 - 13.0 x_73 * x_25 + 14.0 x_73 * x_31 - 4.5 x_73 * x_32 + 18.0 x_73 * x_39 - 12.5 x_73 * x_40 - 16.5 x_73 * x_42 + 17.5 x_73 * x_46 + 19.5 x_73 * x_49 + 2.0 x_73 * x_52 + 20.5 x_73 * x_55 - 1.5 x_73 * x_56 - 16.0 x_73 * x_58 + 16.5 x_73 * x_60 - 19.5 x_73 * x_61 - 2.0 x_73 * x_64 + 14.0 x_73 * x_65 + 19.0 x_73 * x_68 - 8.5 x_73 * x_73 + 8.5 x_73 * x_74 + 8.5 x_73 * x_75 + 16.0 x_74 * x_5 - 20.0 x_74 * x_6 - 20.0 x_74 * x_7 - 16.5 x_74 * x_10 + 23.5 x_74 * x_13 - 20.0 x_74 * x_14 + 20.0 x_74 * x_20 - 13.0 x_74 * x_25 - 10.0 x_74 * x_26 + 6.0 x_74 * x_29 - 6.0 x_74 * x_36 + 20.5 x_74 * x_59 - 11.5 x_74 * x_61 + 12.0 x_74 * x_62 + 24.5 x_74 * x_64 + 7.5 x_74 * x_65 + 8.5 x_74 * x_73 - 17.0 x_74 * x_76 + 22.5 x_74 * x_79 + 6.0 x_75 * x_6 + 8.5 x_75 * x_9 - 18.5 x_75 * x_10 + 0.5 x_75 * x_12 - 5.5 x_75 * x_27 + 8.0 x_75 * x_28 - 3.5 x_75 * x_30 + 9.5 x_75 * x_34 + 6.0 x_75 * x_37 + 20.5 x_75 * x_56 - 6.5 x_75 * x_63 - 22.5 x_75 * x_67 + 13.5 x_75 * x_71 + 8.5 x_75 * x_73 - 18.0 x_76 * x_1 - 11.0 x_76 * x_2 - 8.0 x_76 * x_7 + 9.5 x_76 * x_10 - 8.5 x_76 * x_15 - 10.5 x_76 * x_21 - 11.0 x_76 * x_24 + 5.5 x_76 * x_26 + 6.5 x_76 * x_27 - 1.0 x_76 * x_30 - 6.0 x_76 * x_35 - 1.5 x_76 * x_37 + 17.0 x_76 * x_43 + 15.0 x_76 * x_44 + 11.5 x_76 * x_47 - 12.5 x_76 * x_66 - 11.5 x_76 * x_70 - 18.5 x_76 * x_71 - 17.0 x_76 * x_74 + 24.0 x_77 * x_6 - 20.0 x_77 * x_8 + 4.0 x_77 * x_21 - 4.5 x_77 * x_25 - 8.5 x_77 * x_26 + 5.5 x_77 * x_27 - 4.0 x_77 * x_31 - 15.5 x_77 * x_32 - 16.0 x_77 * x_35 - 2.0 x_77 * x_37 + 6.0 x_77 * x_39 + 12.5 x_77 * x_44 - 19.5 x_77 * x_54 - 14.0 x_77 * x_55 - 20.5 x_77 * x_64 + 9.0 x_77 * x_67 - 3.0 x_77 * x_70 + 2.0 x_78 * x_17 - 10.0 x_78 * x_18 + 2.0 x_78 * x_20 + 24.5 x_78 * x_25 + 22.0 x_78 * x_37 - 13.5 x_78 * x_40 + 3.0 x_78 * x_41 + 13.5 x_78 * x_49 + 9.0 x_78 * x_50 - 16.5 x_78 * x_57 + 6.0 x_78 * x_58 - 7.5 x_78 * x_64 + 16.0 x_78 * x_65 + 15.0 x_78 * x_66 + 17.0 x_78 * x_70 + 7.0 x_78 * x_79 + 17.0 x_79 * x_3 + 8.5 x_79 * x_4 - 13.0 x_79 * x_5 - 19.5 x_79 * x_7 + 8.0 x_79 * x_11 - 12.0 x_79 * x_16 - 14.0 x_79 * x_17 + 16.0 x_79 * x_19 - 6.0 x_79 * x_22 - 21.0 x_79 * x_27 - 13.0 x_79 * x_29 + 24.5 x_79 * x_34 - 14.5 x_79 * x_37 + 12.5 x_79 * x_38 - 12.0 x_79 * x_41 - 16.0 x_79 * x_45 + 15.5 x_79 * x_58 - 5.0 x_79 * x_67 - 5.5 x_79 * x_68 + 5.0 x_79 * x_70 + 22.5 x_79 * x_74 + 7.0 x_79 * x_78 - 13.5 x_79 * x_79 - 2.0 x_80 * x_6 + 17.0 x_80 * x_13 - 5.5 x_80 * x_18 + 4.0 x_80 * x_23 - 9.0 x_80 * x_24 - 8.0 x_80 * x_33 + 1.5 x_80 * x_41 + 3.5 x_80 * x_44 + 19.5 x_80 * x_47 - 13.5 x_80 * x_57 - 15.0 x_80 * x_59 - 23.0 x_80 * x_61 + 5.0 x_80 * x_68 + 3.5 x_80 * x_72 ] + 0.0 x_1 + 0.0 x_2 + 0.0 x_3 + 0.0 x_4 + 0.0 x_5 - 42.0 x_6 + 0.0 x_7 + 0.0 x_8 + 0.0 x_9 + 0.0 x_10 + 0.0 x_11 + 0.0 x_12 + 0.0 x_13 + 0.0 x_14 + 0.0 x_15 + 0.0 x_16 - 11.0 x_17 + 29.0 x_18 - 12.0 x_19 + 35.0 x_20 + 0.0 x_21 + 0.0 x_22 + 0.0 x_23 + 0.0 x_24 + 0.0 x_25 + 0.0 x_26 + 0.0 x_27 + 0.0 x_28 + 0.0 x_29 + 0.0 x_30 + 0.0 x_31 + 0.0 x_32 + 0.0 x_33 + 0.0 x_34 + 0.0 x_35 + 0.0 x_36 + 0.0 x_37 + 0.0 x_38 - 13.0 x_39 + 30.0 x_40 + 0.0 x_41 + 0.0 x_42 - 46.0 x_43 + 25.0 x_44 + 0.0 x_45 + 0.0 x_46 + 0.0 x_47 + 0.0 x_48 + 0.0 x_49 + 0.0 x_50 + 0.0 x_51 + 0.0 x_52 + 0.0 x_53 - 45.0 x_54 + 0.0 x_55 + 0.0 x_56 + 0.0 x_57 + 0.0 x_58 + 0.0 x_59 + 0.0 x_60 + 0.0 x_61 - 28.0 x_62 + 0.0 x_63 + 0.0 x_64 + 4.0 x_65 + 0.0 x_66 + 0.0 x_67 + 0.0 x_68 + 0.0 x_69 + 0.0 x_70 + 0.0 x_71 + 0.0 x_72 + 0.0 x_73 + 0.0 x_74 + 0.0 x_75 + 0.0 x_76 + 0.0 x_77 - 28.0 x_78 + 47.0 x_79 + 0.0 x_80

Subject To

Bounds
 x_1 <= 1.0
 x_2 <= 1.0
 x_3 <= 1.0
 x_4 <= 1.0
 x_5 <= 1.0
 x_6 <= 1.0
 x_7 <= 1.0
 x_8 <= 1.0
 x_9 <= 1.0
 x_10 <= 1.0
 x_11 <= 1.0
 x_12 <= 1.0
 x_13 <= 1.0
 x_14 <= 1.0
 x_15 <= 1.0
 x_16 <= 1.0
 x_17 <= 1.0
 x_18 <= 1.0
 x_19 <= 1.0
 x_20 <= 1.0
 x_21 <= 1.0
 x_22 <= 1.0
 x_23 <= 1.0
 x_24 <= 1.0
 x_25 <= 1.0
 x_26 <= 1.0
 x_27 <= 1.0
 x_28 <= 1.0
 x_29 <= 1.0
 x_30 <= 1.0
 x_31 <= 1.0
 x_32 <= 1.0
 x_33 <= 1.0
 x_34 <= 1.0
 x_35 <= 1.0
 x_36 <= 1.0
 x_37 <= 1.0
 x_38 <= 1.0
 x_39 <= 1.0
 x_40 <= 1.0
 x_41 <= 1.0
 x_42 <= 1.0
 x_43 <= 1.0
 x_44 <= 1.0
 x_45 <= 1.0
 x_46 <= 1.0
 x_47 <= 1.0
 x_48 <= 1.0
 x_49 <= 1.0
 x_50 <= 1.0
 x_51 <= 1.0
 x_52 <= 1.0
 x_53 <= 1.0
 x_54 <= 1.0
 x_55 <= 1.0
 x_56 <= 1.0
 x_57 <= 1.0
 x_58 <= 1.0
 x_59 <= 1.0
 x_60 <= 1.0
 x_61 <= 1.0
 x_62 <= 1.0
 x_63 <= 1.0
 x_64 <= 1.0
 x_65 <= 1.0
 x_66 <= 1.0
 x_67 <= 1.0
 x_68 <= 1.0
 x_69 <= 1.0
 x_70 <= 1.0
 x_71 <= 1.0
 x_72 <= 1.0
 x_73 <= 1.0
 x_74 <= 1.0
 x_75 <= 1.0
 x_76 <= 1.0
 x_77 <= 1.0
 x_78 <= 1.0
 x_79 <= 1.0
 x_80 <= 1.0

End